4 
5  18 33 44 58 
6  11 25 40 53 
7  08 23 38 53 
8  08 23 38 53 
9  08 23 38 53 
10  07 22 37 52 
11  07 22 37 52 
12  07 22 37 52 
13  07 22 37 52 
14  07 22 37 52 
15  07 22 37 52 
16  07 22 37 52 
17  07 22 37 52 
18  08 23 38 53 
19  08 24 39 54 
20  09 22 33 48 
21  03 18 33 48 
22  03 17 31 43 58 
23  13 
0 
